(set-logic QF_S)
(declare-fun T3_2 () String)
(declare-fun T0_4 () String)
(declare-fun T4_2 () String)
(declare-fun T0_2 () String)
(declare-fun T2_2 () String)
(declare-fun T3_8 () String)
(declare-fun T2_8 () String)
(declare-fun T1_8 () String)
(declare-fun T1_4 () String)
(declare-fun var_0xINPUT_122 () String)
(declare-fun T5_2 () String)
(declare-fun PCTEMP_LHS_3 () String)
(declare-fun T1_2 () String)
(assert (and (= var_0xINPUT_122 (concat T0_2 T1_2)) (= (len T0_2) 0) (= T1_2 (concat T2_2 T3_2)) (= T2_2 (concat T4_2 T5_2)) (= T5_2 "?") (not (in T4_2 /\?/)) (= var_0xINPUT_122 (concat T0_4 T1_4)) (= (len T0_4) 0) (not (in T1_4 /#/)) (= var_0xINPUT_122 (concat T1_8 T2_8)) (= T2_8 (concat PCTEMP_LHS_3 T3_8)) (not (= PCTEMP_LHS_3 "xyz=99999&abc=qwerty")) (>= (len var_0xINPUT_122) 1) (>= (len T1_8) 1)))
(check-sat var_0xINPUT_122)